100 67127

 685 202
883 81
204 475
874 10
60 85
889 808
330 772
315 916
513 855
941 684
48 53
353 783
857 846
397 800
200 509
425 233
386 846
916 728
762 981
506 156
989 226
466 212
59 793
263 187
437 67
157 999
948 25
767 836
269 366
591 842
722 555
942 902
882 927
516 10
775 76
563 251
553 670
115 889
127 460
530 607
269 189
22 805
723 968
33 269
596 495
540 87
969 560
485 503
64 145
552 443
842 335
997 522
431 586
321 9
907 762
192 714
616 367
406 53
42 755
348 956
266 241
687 324
949 184
269 577
812 155
56 357
539 698
71 561
935 387
767 421
658 563
824 6
648 79
969 882
714 78
925 707
518 921
118 271
529 371
127 569
593 882
483 942
623 740
11 87
195 670
492 411
951 471
384 50
425 192
715 791
604 454
299 302
411 385
218 855
967 749
131 273
372 118
26 252
222 921
781 582
